&inputpp
   outdir = './out'
   prefix = 'water'
   seedname = 'water'
   spin_component = 'none'
   write_mmn = .true.
   write_amn = .true.
   write_unk = .false.
/
