num_bands         =   256 
num_wann          =   256

write_xyz         = True
translate_home_cell = True

Begin Projections     
O:sp3
End Projections       
    
gamma_only : True
mp_grid : 1 1 1 

begin kpoints
0.0 0.0 0.0
end kpoints

Begin Unit_Cell_Cart
12.45 0.0 0.0 
0.0 12.45 0.0 
0.0 0.0 12.45 
End Unit_Cell_Cart

Begin Atoms_Cart
O 6.5019129 0.34620711 3.00656295
O 5.2772935499999996 11.70286305 0.48002219999999995
O 9.0869811 8.5108698 11.885205749999999
O 5.8892982 7.6097388 2.4441092999999996
O 0.91729608 6.20484345 5.9135757
O 0.9379257299999999 6.03348165 0.29262230999999994
O 11.06101575 6.01532955 9.0924342
O 3.6977744999999995 5.46317205 0.9379643249999999
O 3.1048058999999997 8.858212349999999 11.39390385
O 5.102707199999999 12.090195 10.304516399999999
O 12.3064515 10.2529734 7.179952349999999
O 11.461967999999999 2.5160329499999996 8.4999636
O 1.48868385 0.14897918999999998 6.298542149999999
O 8.525473649999999 5.9335455 6.676287599999999
O 8.99986845 4.4465175 11.112645899999999
O 1.201060215 0.890071665 11.893074149999999
O 3.3067324499999997 0.5633263949999999 1.3641215999999998
O 6.4653597000000005 9.800677349999999 8.41661085
O 5.1944886 2.52044025 10.82673165
O 6.55396635 2.6865606 4.637986049999999
O 11.13972465 0.051193528499999995 5.243877749999999
O 2.60365605 12.37658235 8.845725
O 1.215718845 3.5204118 9.77002545
O 11.45874345 9.03029625 1.6824681
O 7.4859858 12.27080715 8.451545549999999
O 10.85688555 7.921636199999999 6.45180165
O 9.193428599999999 0.09809965049999998 3.1416703499999996
O 7.45405155 2.51565945 9.171354749999999
O 12.000131699999999 12.1153938 9.45272475
O 1.31326335 10.552906349999999 2.77509255
O 4.73061405 1.51208985 6.1409874
O 5.7855897 10.19372385 4.22265405
O 8.83682325 9.0665382 5.124980249999999
O 1.22260992 9.237688349999999 5.203452599999999
O 11.4701601 4.5695733 6.3346596
O 4.3508268 5.074370999999999 7.68392835
O 4.64717415 10.70004045 6.5375448
O 8.2086336 11.604147 5.76742515
O 9.373019849999999 5.58507 2.6362376999999997
O 3.17872155 0.030823585499999997 4.27195605
O 6.9106464 9.556993499999999 0.77750997
O 5.7181605 8.345098049999999 10.708556249999999
O 11.1796269 9.3832662 9.880344899999999
O 2.44541655 4.73382615 3.93996435
O 11.3547237 3.09000285 3.92846055
O 6.2089893 6.13148805 9.5569686
O 8.7546408 3.9312368999999996 4.8675640499999995
O 11.29134075 7.1301399000000005 3.8962274999999997
O 3.4245716999999996 8.77626645 1.91021595
O 0.9706654949999999 7.615976249999999 10.370464049999999
O 1.9818781499999998 6.0829455 8.43575895
O 9.10365165 0.23486302499999998 10.642222649999999
O 1.5752735999999998 2.8179578999999997 6.329082
O 3.4424872499999997 2.48991285 8.745888449999999
O 7.6972374 6.27720285 0.40050778499999995
O 8.0494728 1.1159184 0.5970098699999999
O 1.2974020499999999 6.741040049999999 2.8317773999999996
O 9.13632045 10.009115249999999 2.6263399499999998
O 10.9645158 4.17736095 0.9341471549999999
O 6.323242949999999 7.125072749999999 4.9652467499999995
O 0.9827083799999999 2.6641755 2.1567010499999997
O 5.18735475 2.56854705 1.126305435
O 11.010792449999999 1.2673850999999998 1.12512144
O 5.02301475 4.756373099999999 4.493454
H 5.32749195 11.8456272 11.241852
H 11.534240249999998 10.2551895 6.55150125
H 0.396937125 9.6758661 6.6200883
H 10.77767865 3.1728451499999997 8.598729449999999
H 11.0974818 1.71380475 8.846857949999999
H 1.9936931999999998 12.275450999999999 7.0344865500000004
H 0.661098735 12.2190774 6.551600849999999
H 9.465847049999999 4.7018172 10.2871113
H 9.775378949999999 4.24742955 11.709586049999999
H 0.53245662 1.0617808199999998 0.150795645
H 1.25614275 1.72802265 11.38872465
H 2.6215965 0.752013615 0.66059949
H 2.81164575 0.365488425 2.18785095
H 6.3326177999999995 9.209812799999998 9.20633925
H 7.1730924 9.4108056 7.846077149999999
H 6.059377649999999 2.83174005 10.61463345
H 5.0770602 2.6714711999999996 11.832330599999999
H 6.58469295 2.00657895 3.8909984999999994
H 5.8647468 2.2998138 5.2863073499999995
H 10.869099 0.78004977 5.822018399999999
H 10.524570149999999 0.11442471299999998 4.5406644
H 2.7166647 0.86087268 8.738966249999999
H 3.44243745 12.14065485 9.1813023
H 0.41007685499999996 3.14074905 9.35922525
H 1.9348793999999998 3.0244785 9.39726
H 11.435897699999998 8.320310099999999 2.33762445
H 11.035879199999998 8.76458835 0.883015005
H 10.170454799999998 7.30350615 6.73610985
H 11.188541099999998 7.6073981999999996 5.5409223
H 8.2625421 0.28965921 2.92486605
H 9.28459995 11.55956355 2.9687024999999996
H 8.114661 2.49795555 9.87455565
H 7.3333239 1.4764704 9.008658149999999
H 0.30779885999999995 12.397025249999999 9.9338052
H 12.2364576 11.394613499999998 8.850692549999998
H 0.529374 10.3788678 2.2203952499999997
H 2.02505475 10.036828949999999 2.3299428
H 4.4859342 1.8041917499999998 7.0160232
H 4.015398899999999 1.3798085999999998 5.54066085
H 5.30600325 10.148356049999999 5.090294549999999
H 6.4462614 9.491456699999999 4.2401960999999995
H 8.72751225 9.987452249999999 5.399739299999999
H 9.61298115 8.69344905 5.7293406
H 0.873704895 9.6672009 4.4273943
H 1.9601777999999999 9.78623535 5.4962019
H 12.091315499999999 5.2463304 6.047936099999999
H 11.992325549999999 3.8668952999999995 6.796890749999999
H 4.739403749999999 11.6112684 6.785523899999999
H 5.004651 10.287011699999999 7.2901473
H 7.30472625 11.46661185 5.49247935
H 8.5359192 12.05748885 4.96019205
H 8.68851885 5.74601115 1.9223298
H 8.895450299999998 4.96362825 3.2297291999999995
H 2.40350985 12.354882 4.84161825
H 3.74193465 11.711951549999998 4.29944565
H 7.07143815 8.79023535 1.4066508
H 7.541039699999999 10.225396649999999 1.13644845
H 5.92822935 7.4240470499999995 10.541053949999998
H 6.0436159499999995 8.47295955 11.61643515
H 11.22306495 9.4010199 8.891292
H 11.26053945 10.3162443 10.10766945
H 1.9724410499999998 5.3052189 4.5308787
H 2.3521038 5.108060699999999 3.095319
H 11.1366246 3.9094120499999994 3.4504428
H 11.445907499999999 3.5186936999999996 4.837098899999999
H 5.5817334 5.69197815 8.9296878
H 6.61258095 5.384649899999999 10.0408254
H 10.523673749999999 6.795832499999999 3.3784818
H 12.117273749999999 6.73827615 3.5625799499999995
H 4.2503801999999995 8.3720772 2.27261055
H 3.5877413999999996 8.87653875 0.9994822649999999
H 0.149832015 8.256727949999998 10.236925349999998
H 1.6586139 8.25593115 10.74105075
H 1.87182015 5.4076575 9.057375
H 1.53888225 6.84659115 8.8191567
H 10.03426425 12.414031949999998 10.434108449999998
H 8.61292245 0.0558070005 9.82216605
H 1.6742635499999998 3.1535601 5.4206055
H 1.408095 1.8683715 6.29856705
H 4.03871775 2.72180655 9.52685205
H 3.5968547999999996 3.1173056999999997 8.01357945
H 8.094491999999999 7.08677655 0.012277816499999998
H 8.116067849999999 5.5844226 12.224879099999999
H 8.339881499999999 0.839761215 12.16647615
H 7.54294455 1.8504435000000001 0.37295718
H 8.9944776 9.5303007 3.5229017999999996
H 10.04611665 9.6508665 2.2870027499999996
H 10.1515557 4.43378115 1.5277394999999998
H 11.35361565 3.2274259499999998 1.07332944
H 5.917360499999999 6.19246815 4.8072189
H 7.236338399999999 7.0864404 5.372847299999999
H 0.523877325 2.3185137 2.92820265
H 1.7271760499999997 3.1684004999999997 2.5935341999999997
H 8.646910949999999 9.3384711 11.844992249999999
H 9.424575299999999 8.182762499999999 11.05137945
H 8.6574063 5.003406 6.266832
H 7.8341126999999995 5.81493435 7.29618555
H 6.846180299999999 11.697584249999998 8.79098235
H 7.4692281 12.3100122 7.427856749999999
H 4.865223449999999 5.4557394 6.9292964999999995
H 3.6465303 5.54818065 7.91290875
H 7.963617599999999 3.42662595 5.009593649999999
H 9.5001468 3.4077268499999995 4.54010415
H 1.8720567 7.50788535 2.5709498999999996
H 0.9682975049999999 6.453880799999999 1.9600657499999998
H 4.788045899999999 3.4394868 1.4705442
H 4.423111499999999 1.98135525 1.230726075
H 10.049092199999999 1.1864800199999999 0.882945285
H 11.0159592 0.857395395 1.9683200999999997
H 4.1248593 4.70992215 4.1982645
H 5.4367656 3.8911976999999998 4.3509513
H 6.4100817 0.26493101999999996 2.03200185
H 6.120868199999999 11.959557149999998 3.38337465
H 4.5364314 12.07977435 0.8947715399999999
H 5.5285221 10.8985059 0.95116008
H 6.33096195 6.876807299999999 1.9764873
H 6.0986325 7.514932049999999 3.51514545
H 0.82319649 7.1056631999999995 5.648814
H 1.4895055499999998 6.19316535 6.7080102
H 0.18111014999999997 5.3810892 0.30741788999999997
H 0.9530599499999999 6.3745992 11.7680388
H 11.92910445 5.919688649999999 9.507019199999998
H 11.25725265 5.94814935 8.203305
H 3.0421575 5.62081395 0.26342581499999995
H 3.9373871999999994 6.366070949999999 1.19168661
H 3.3521376 9.836334149999999 11.499056549999999
H 3.9658478999999995 8.4764331 11.20297065
H 5.0400837 0.575255985 10.40400435
End Atoms_Cart
